Version identifier: 12.10.0.0 | 2019-11-26 | 843d4de
CPXPARAM_WorkMem                                 28672
Tried aggregator 2 times.
Aggregator did 45 substitutions.
Reduced MIP has 199 rows, 240 columns, and 968 nonzeros.
Reduced MIP has 240 binaries, 0 generals, 0 SOSs, and 0 indicators.
Presolve time = 0,00 sec. (0,92 ticks)
Found incumbent of value 960,000000 after 0,00 sec. (1,49 ticks)
Probing time = 0,00 sec. (0,37 ticks)
Tried aggregator 1 time.
Detecting symmetries...
MIP Presolve eliminated 32 rows and 0 columns.
MIP Presolve added 64 rows and 0 columns.
Reduced MIP has 231 rows, 240 columns, and 1000 nonzeros.
Reduced MIP has 240 binaries, 0 generals, 0 SOSs, and 0 indicators.
Presolve time = 0,00 sec. (1,24 ticks)
Probing time = 0,00 sec. (0,36 ticks)
Clique table members: 683.
MIP emphasis: balance optimality and feasibility.
MIP search method: dynamic search.
Parallel mode: deterministic, using up to 16 threads.
Root relaxation solution time = 0,00 sec. (0,69 ticks)

        Nodes                                         Cuts/
   Node  Left     Objective  IInf  Best Integer    Best Bound    ItCnt     Gap

*     0+    0                          960,0000        0,0000           100,00%
*     0+    0                          507,0000        0,0000           100,00%
      0     0      240,0000   137      507,0000      240,0000       78   52,66%
      0     0      240,0000   137      507,0000     Cuts: 157      137   52,66%
      0     0      240,0000   137      507,0000     Cuts: 157      198   52,66%
*     0+    0                          480,0000      240,0000            50,00%
      0     2      278,5167    79      480,0000      240,0000      259   50,00%
Elapsed time = 0,07 sec. (32,19 ticks, tree = 0,02 MB, solutions = 3)

Clique cuts applied:  60
Cover cuts applied:  393
Mixed integer rounding cuts applied:  2
Zero-half cuts applied:  5

Root node processing (before b&c):
  Real time             =    0,06 sec. (32,06 ticks)
Parallel b&c, 16 threads:
  Real time             =    0,30 sec. (198,19 ticks)
  Sync time (average)   =    0,09 sec.
  Wait time (average)   =    0,00 sec.
                          ------------
Total (root+branch&cut) =    0,36 sec. (230,26 ticks)
